NAME: set2_case2_3_25
COMMENT: 1311
VEHICLE: 27
TIME: 600
DIMENSION: 20
CAPACITY: 10
DELIVERY_SECTION
0 0 0
1 1 2.5
2 1 2.5
3 2 2.5
4 2 2.5
5 2 1
6 3 2.5
7 3 2.5
8 3 1
9 3 1
10 4 2.5
11 4 2.5
12 4 2.5
13 4 0.5
14 5 2.5
15 5 2.5
16 5 2.5
17 5 1
18 5 0.5
19 6 2.5
20 6 2.5
21 6 2.5
22 6 2.5
23 7 2.5
24 7 2.5
25 7 2.5
26 7 2.5
27 7 1
28 8 2.5
29 8 2.5
30 8 2.5
31 8 2.5
32 8 1
33 8 1
34 9 2.5
35 9 2.5
36 9 2.5
37 9 2.5
38 9 2.5
39 9 0.5
40 10 2.5
41 10 2.5
42 10 2.5
43 10 2.5
44 10 2.5
45 10 1
46 10 0.5
47 11 2.5
48 11 2.5
49 11 2.5
50 11 2.5
51 11 2.5
52 11 2.5
53 12 2.5
54 12 2.5
55 12 2.5
56 12 2.5
57 12 2.5
58 12 2.5
59 12 1
60 13 2.5
61 13 2.5
62 13 2.5
63 13 2.5
64 13 2.5
65 13 2.5
66 13 1
67 13 1
68 14 2.5
69 14 2.5
70 14 2.5
71 14 2.5
72 14 2.5
73 14 2.5
74 14 2.5
75 14 0.5
76 15 2.5
77 15 2.5
78 15 2.5
79 15 2.5
80 15 2.5
81 15 2.5
82 15 2.5
83 15 1
84 15 0.5
85 16 2.5
86 16 2.5
87 16 2.5
88 16 2.5
89 16 2.5
90 16 2.5
91 16 2.5
92 16 2.5
93 17 2.5
94 17 2.5
95 17 2.5
96 17 2.5
97 17 2.5
98 17 2.5
99 17 2.5
100 17 2.5
101 17 1
102 18 2.5
103 18 2.5
104 18 2.5
105 18 2.5
106 18 2.5
107 18 2.5
108 18 2.5
109 18 2.5
110 18 1
111 18 1
112 19 2.5
113 19 2.5
114 19 2.5
115 19 2.5
116 19 2.5
117 19 2.5
118 19 2.5
119 19 2.5
120 19 2.5
121 19 0.5
PICKUP_SECTION
0 0 0
1 1 2.5
2 1 2.5
3 1 2.5
4 1 2.5
5 2 2.5
6 2 2.5
7 2 2.5
8 2 2.5
9 3 2.5
10 3 2.5
11 3 2.5
12 3 2.5
13 4 2.5
14 4 2.5
15 4 2.5
16 4 2.5
17 5 2.5
18 5 2.5
19 5 2.5
20 5 2.5
21 6 2.5
22 6 2.5
23 6 2.5
24 6 2.5
25 7 2.5
26 7 2.5
27 7 2.5
28 7 2.5
29 8 2.5
30 8 2.5
31 8 2.5
32 8 2.5
33 9 2.5
34 9 2.5
35 9 2.5
36 9 2.5
37 10 2.5
38 10 2.5
39 10 2.5
40 10 2.5
41 11 2.5
42 11 2.5
43 11 2.5
44 11 2.5
45 12 2.5
46 12 2.5
47 12 2.5
48 12 2.5
49 13 2.5
50 13 2.5
51 13 2.5
52 13 2.5
53 14 2.5
54 14 2.5
55 14 2.5
56 14 2.5
57 15 2.5
58 15 2.5
59 15 2.5
60 15 2.5
61 16 2.5
62 16 2.5
63 16 2.5
64 16 2.5
65 17 2.5
66 17 2.5
67 17 2.5
68 17 2.5
69 18 2.5
70 18 2.5
71 18 2.5
72 18 2.5
73 19 2.5
74 19 2.5
75 19 2.5
76 19 2.5
NODE_SECTION
DISTANCE_SECTION
10 11 12 13 14 15 16 17 18 19 20 21 22 23 24 25 26 27 28 
10 11 12 13 14 15 16 17 18 19 20 21 22 23 24 25 26 27 
10 11 12 13 14 15 16 17 18 19 20 21 22 23 24 25 26 
10 11 12 13 14 15 16 17 18 19 20 21 22 23 24 25 
10 11 12 13 14 15 16 17 18 19 20 21 22 23 24 
10 11 12 13 14 15 16 17 18 19 20 21 22 23 
10 11 12 13 14 15 16 17 18 19 20 21 22 
10 11 12 13 14 15 16 17 18 19 20 21 
10 11 12 13 14 15 16 17 18 19 20 
10 11 12 13 14 15 16 17 18 19 
10 11 12 13 14 15 16 17 18 
10 11 12 13 14 15 16 17 
10 11 12 13 14 15 16 
10 11 12 13 14 15 
10 11 12 13 14 
10 11 12 13 
10 11 12 
10 11 
10 
DEPOT_SECTION
0
EOF